# Data from SP5_lab_ATM.pdf
# Units of l, u and xi are thousands of euros.

set SCENARIOS := 1 2 3 4 5 6 7;

param c := 0.00025;
param q := 0.0011;
param l := 21;
param u := 147;

param : p      xi :=
1       0.04   150
2       0.09   120
3       0.10   110
4       0.21   100
5       0.27    80
6       0.23    60
7       0.06    50;

param MAXCUTS := 100;
param nCUT := 0;
